123,shamon shb
1,0,1,0,0,
1,0,1,0,1,
0,1,0,1,1,
0,0,0,1,0,
1,0,1,0,1,
123,shamon shb
0,1,0,0,-858993460,
-858993460,-858993460,-858993460,-858993460,-858993460,
-858993460,-858993460,-858993460,-858993460,-858993460,
-858993460,-858993460,-858993460,-858993460,-858993460,
-858993460,-858993460,-858993460,-858993460,-858993460,
123,shamon shb
-858993460,-858993460,-858993460,-858993460,-858993460,
-858993460,-858993460,-858993460,-858993460,-858993460,
-858993460,-858993460,-858993460,-858993460,-858993460,
-858993460,-858993460,-858993460,-858993460,-858993460,
-858993460,-858993460,-858993460,-858993460,-858993460,
123,shamon shb
-858993460,-858993460,-858993460,-858993460,-858993460,
-858993460,-858993460,-858993460,-858993460,-858993460,
-858993460,-858993460,-858993460,-858993460,-858993460,
-858993460,-858993460,-858993460,-858993460,-858993460,
-858993460,-858993460,-858993460,-858993460,-858993460,
123,shamon shb
-858993460,-858993460,-858993460,-858993460,-858993460,
-858993460,-858993460,-858993460,-858993460,-858993460,
-858993460,-858993460,-858993460,-858993460,-858993460,
-858993460,-858993460,-858993460,-858993460,-858993460,
-858993460,-858993460,-858993460,-858993460,-858993460,
123,shamon shb
1,0,0,0,1,
1,0,0,0,1,
1,0,0,0,1,
1,0,0,0,1,
1,0,0,0,1,
3716,Ameer Sultan
1,0,1,0,1,
1,1,1,1,1,
0,0,0,0,0,
1,0,1,0,1,
0,1,0,1,0,
